benchmarks/VRPTW/TSPTW/solution/n150w40.001.txt.solution
1 41 31 110 143 103 81 73 20 113 13 148 125 118 9 139 106 117 49 29 47 87 62 104 134 21 16 42 150 114 56 36 119 121 24 37 64 2 3 14 51 22 28 83 58 72 97 26 78 39 94 10 33 141 109 105 107 38 65 67 145 6 34 112 138 50 88 30 74 93 55 17 146 23 92 147 61 11 70 35 46 132 120 7 69 135 124 45 68 82 102 98 89 66 122 84 100 18 59 27 25 80 142 40 137 101 140 75 116 85 48 131 57 63 15 32 86 149 43 53 44 77 96 128 111 115 133 91 126 8 129 71 136 60 19 144 99 127 52 79 76 130 12 95 90 4 5 123 108 151 54 
918
